EDIFF = 1E-6
ALGO = Fast
PREC = Accurate
NELM = 250
NELMIN = 4
LREAL = .FALSE.
IBRION = 0
ISIF = 2
MAXMIX = 50
SMASS = 0
ISYM = 0
NSIM = 9
NPAR = 4
POTIM = 0.4 
LWAVE = .FALSE.
LCHARG = .FALSE.
LASPH = .TRUE.
ENCUT=1000
TEBEG = 300
ISMEAR = -1;  SIGMA = 0.025852029018
NSW = 0
ISTART = 0
KSPACING=0.2
KGAMMA=.TRUE.
